<number of tasks>
20

<cycle time>
1000

<order strength>
0,8


<task times>
1 500
2 359
3 583
4 572
5 584
6 410
7 463
8 535
9 608
10 408
11 458
12 703
13 443
14 421
15 461
16 441
17 537
18 265
19 402
20 560

<precedence relations>
1,2
1,3
1,4
2,5
2,6
3,5
3,6
4,18
5,7
5,8
6,7
6,8
7,9
7,10
7,11
8,9
8,10
8,11
9,12
9,13
10,14
11,12
11,13
11,14
12,15
12,17
13,16
13,19
14,15
14,16
15,18
15,19
16,17
16,18
18,20

<end>
